NAME: random10
TYPE: TSP
COMMENT: 10-node EUC_2D instance
DIMENSION: 10
EDGE_WEIGHT_TYPE: EUC_2D
NODE_COORD_SECTION
1  10.0  10.0
2  30.0  20.0
3  20.0  40.0
4  40.0  50.0
5  50.0  30.0
6  15.0  60.0
7  60.0  10.0
8  70.0  40.0
9  25.0  25.0
10 45.0  65.0
EOF
